100
32
32
22
31
12
8
19
12
16
10
11
8
21
31
26
28
18
14
12
25
26
9
31
26
11
24
10
14
18
6
14
26
22
17
3
17
11
20
9
31
1
29
28
27
15
17
19
11
4
22
9
25
2
3
4
17
27
22
18
16
16
11
32
11
3
20
18
4
23
27
4
9
17
18
14
4
26
11
19
20
29
18
1
17
7
8
18
28
12
6
7
25
28
5
20
29
9
8
21
30
3